NAME: tsp5_22
COMMENT: 5-tsp problem (Padberg/Rinaldi)
TYPE: TSP
DIMENSION: 5
EDGE_WEIGHT_TYPE : EUC_2D
NODE_COORD_SECTION
1.00 29.62 10.85
2.00 20.06 12.88
3.00 27.89 0.66
4.00 28.58 25.08
5.00 7.06 30.45
